param n :=6;
param i_d :=1;
param i_a :=5;
param A_min :=4;
param m :=2;
param Z:=1 1 
2 2 
3 1 
4 2 
5 0 
6 1;
param R :=6;
param X:=1 0
2 1 
3 1
4 5
5 2
6 6;
param Y:=1 10
2 3
3 7
4 3
5 8
6 6;

let {i in 1..n, j in 1..n} D[i,j]:=floor(sqrt((X[i]-X[j])**2+(Y[i]-Y[j])**2));
